c Result of efficient AIG-to-CNF conversion using package CNF
p cnf 362 1257
-2 3 214 0
-2 -3 -214 0
2 -3 214 0
2 3 -214 0
-3 4 172 0
-3 -4 -172 0
3 -4 172 0
3 4 -172 0
4 -5 100 0
4 5 -100 0
-4 5 100 0
-4 -5 -100 0
-5 43 82 0
-5 6 82 0
-5 6 43 0
5 -6 -82 0
5 -6 -43 0
5 -43 -82 0
6 7 -26 0
6 -7 26 0
-6 -7 -26 0
-6 7 26 0
7 -8 15 0
7 8 -15 0
-7 8 15 0
-7 -8 -15 0
-8 9 12 0
8 -9 0
8 -12 0
9 -10 -11 0
-9 10 0
-9 11 0
10 -344 -346 0
-10 344 0
-10 346 0
11 -332 -343 0
-11 332 0
-11 343 0
12 -13 -14 0
-12 13 0
-12 14 0
13 -340 -342 0
-13 340 0
-13 342 0
14 10 -11 0
14 -10 11 0
-14 -10 -11 0
-14 10 11 0
-15 16 21 0
-15 -16 -21 0
15 -16 21 0
15 16 -21 0
16 17 -18 0
16 -17 18 0
-16 -17 -18 0
-16 17 18 0
17 -338 -339 0
-17 338 0
-17 339 0
18 19 -20 0
18 -19 20 0
-18 -19 -20 0
-18 19 20 0
19 -334 -335 0
-19 334 0
-19 335 0
20 -331 -333 0
-20 331 0
-20 333 0
-21 22 23 0
-21 22 24 0
21 -22 0
21 -23 -24 0
22 -331 -333 -335 -338 0
-22 338 0
-22 331 0
-22 335 0
-22 333 0
23 -339 -341 0
-23 339 0
-23 341 0
-24 331 25 0
-24 338 25 0
24 -25 0
24 -331 -338 0
25 -333 -335 0
-25 333 0
-25 335 0
26 27 -32 0
26 -27 32 0
-26 -27 -32 0
-26 27 32 0
27 28 -29 0
27 -28 29 0
-27 -28 -29 0
-27 28 29 0
28 -347 -348 0
-28 347 0
-28 348 0
29 30 -31 0
29 -30 31 0
-29 -30 -31 0
-29 30 31 0
30 -349 -351 0
-30 349 0
-30 351 0
31 -352 -353 0
-31 352 0
-31 353 0
32 33 -38 0
32 -33 38 0
-32 -33 -38 0
-32 33 38 0
33 34 -35 0
33 -34 35 0
-33 -34 -35 0
-33 34 35 0
34 -336 -343 0
-34 336 0
-34 343 0
35 36 -37 0
35 -36 37 0
-35 -36 -37 0
-35 36 37 0
36 -341 -346 0
-36 341 0
-36 346 0
37 -344 -345 0
-37 344 0
-37 345 0
38 39 -40 0
38 -39 40 0
-38 -39 -40 0
-38 39 40 0
39 -354 -355 0
-39 354 0
-39 355 0
40 41 -42 0
40 -41 42 0
-40 -41 -42 0
-40 41 42 0
41 -332 -340 0
-41 332 0
-41 340 0
42 -342 -357 0
-42 342 0
-42 357 0
-43 44 63 0
-43 44 81 0
43 -44 0
43 -63 -81 0
44 -45 -51 0
-44 45 0
-44 51 0
-45 46 47 0
45 -46 0
45 -47 0
46 -348 -352 -356 -358 0
-46 358 0
-46 348 0
-46 356 0
-46 352 0
47 -350 -360 -48 0
-47 350 0
-47 360 0
-47 48 0
48 49 -50 0
48 -49 50 0
-48 -49 -50 0
-48 49 50 0
49 -352 -358 0
-49 352 0
-49 358 0
50 -348 -356 0
-50 348 0
-50 356 0
-51 -52 -58 0
-51 52 58 0
51 52 -58 0
51 -52 58 0
-52 53 54 0
52 -53 0
52 -54 0
53 -331 -335 -338 -341 0
-53 341 0
-53 331 0
-53 338 0
-53 335 0
54 -339 -344 -55 0
-54 339 0
-54 344 0
-54 55 0
55 56 -57 0
55 -56 57 0
-55 -56 -57 0
-55 56 57 0
56 -335 -338 0
-56 335 0
-56 338 0
57 -331 -341 0
-57 331 0
-57 341 0
58 59 -62 0
58 -59 62 0
-58 -59 -62 0
-58 59 62 0
59 23 -60 0
59 -23 60 0
-59 -23 -60 0
-59 23 60 0
60 25 -61 0
60 -25 61 0
-60 -25 -61 0
-60 25 61 0
61 -331 -338 0
-61 331 0
-61 338 0
62 13 -14 0
62 -13 14 0
-62 -13 -14 0
-62 13 14 0
-63 64 69 0
-63 -64 -69 0
63 -64 69 0
63 64 -69 0
64 65 -66 0
64 -65 66 0
-64 -65 -66 0
-64 65 66 0
65 -350 -361 0
-65 350 0
-65 361 0
66 67 -68 0
66 -67 68 0
-66 -67 -68 0
-66 67 68 0
67 -348 -358 0
-67 348 0
-67 358 0
68 -356 -360 0
-68 356 0
-68 360 0
-69 -70 -76 0
-69 70 76 0
69 70 -76 0
69 -70 76 0
-70 71 72 0
70 -71 0
70 -72 0
71 -340 -342 -343 -354 0
-71 354 0
-71 340 0
-71 343 0
-71 342 0
72 -351 -357 -73 0
-72 351 0
-72 357 0
-72 73 0
73 74 -75 0
73 -74 75 0
-73 -74 -75 0
-73 74 75 0
74 -342 -343 0
-74 342 0
-74 343 0
75 -340 -354 0
-75 340 0
-75 354 0
76 77 -78 0
76 -77 78 0
-76 -77 -78 0
-76 77 78 0
77 -347 -352 0
-77 347 0
-77 352 0
78 79 -80 0
78 -79 80 0
-78 -79 -80 0
-78 79 80 0
79 -354 -357 0
-79 354 0
-79 357 0
80 -351 -355 0
-80 351 0
-80 355 0
81 -45 51 0
81 45 -51 0
-81 45 51 0
-81 -45 -51 0
82 83 -96 0
82 -83 96 0
-82 -83 -96 0
-82 83 96 0
83 84 -89 0
83 -84 89 0
-83 -84 -89 0
-83 84 89 0
84 85 -86 0
84 -85 86 0
-84 -85 -86 0
-84 85 86 0
85 -330 -350 0
-85 330 0
-85 350 0
86 87 -88 0
86 -87 88 0
-86 -87 -88 0
-86 87 88 0
87 -358 -360 0
-87 358 0
-87 360 0
88 -356 -361 0
-88 356 0
-88 361 0
89 -90 93 0
89 90 -93 0
-89 90 93 0
-89 -90 -93 0
-90 91 92 0
90 -91 0
90 -92 0
91 -79 -80 0
-91 79 0
-91 80 0
92 -77 -78 0
-92 77 0
-92 78 0
-93 94 95 0
93 -94 0
93 -95 0
94 -67 -68 0
-94 67 0
-94 68 0
95 -65 -66 0
-95 65 0
-95 66 0
96 -97 99 0
96 97 -99 0
-96 97 99 0
-96 -97 -99 0
-97 98 58 0
-97 52 98 0
97 -98 0
97 -52 -58 0
98 -59 -62 0
-98 59 0
-98 62 0
-99 64 76 0
-99 70 69 0
-99 64 70 0
-99 76 69 0
99 -64 -69 0
99 -70 -76 0
-100 101 117 0
-100 -101 -117 0
100 -101 117 0
100 101 -117 0
101 -102 107 0
101 102 -107 0
-101 102 107 0
-101 -102 -107 0
-102 103 104 0
-102 -103 -104 0
102 -103 104 0
102 103 -104 0
103 -7 -26 0
-103 7 0
-103 26 0
-104 105 106 0
104 -105 0
104 -106 0
105 -90 -93 0
-105 90 0
-105 93 0
106 -84 -89 0
-106 84 0
-106 89 0
-107 -108 -111 0
-107 108 111 0
107 108 -111 0
107 -108 111 0
-108 109 110 0
108 -109 0
108 -110 0
109 -33 -38 0
-109 33 0
-109 38 0
110 -27 -32 0
-110 27 0
-110 32 0
111 -112 115 0
111 112 -115 0
-111 112 115 0
-111 -112 -115 0
-112 113 114 0
112 -113 0
112 -114 0
113 -356 -358 -360 -361 0
-113 361 0
-113 356 0
-113 360 0
-113 358 0
114 -85 -86 0
-114 85 0
-114 86 0
-115 21 116 0
-115 16 116 0
115 -116 0
115 -16 -21 0
116 -8 -15 0
-116 8 0
-116 15 0
-117 118 169 0
-117 -118 -169 0
117 -118 169 0
117 118 -169 0
118 -119 140 0
118 119 -140 0
-118 119 140 0
-118 -119 -140 0
-119 120 125 0
-119 -120 -125 0
119 -120 125 0
119 120 -125 0
120 121 -122 0
120 -121 122 0
-120 -121 -122 0
-120 121 122 0
121 -329 -350 0
-121 329 0
-121 350 0
122 123 -124 0
122 -123 124 0
-122 -123 -124 0
-122 123 124 0
123 -358 -361 0
-123 358 0
-123 361 0
124 -330 -356 0
-124 330 0
-124 356 0
-125 126 131 0
-125 -126 -131 0
125 -126 131 0
125 126 -131 0
126 127 -128 0
126 -127 128 0
-126 -127 -128 0
-126 127 128 0
127 -328 -344 0
-127 328 0
-127 344 0
128 129 -130 0
128 -129 130 0
-128 -129 -130 0
-128 129 130 0
129 -338 -346 0
-129 338 0
-129 346 0
130 -341 -345 0
-130 341 0
-130 345 0
-131 -132 -135 0
-131 132 135 0
131 132 -135 0
131 -132 135 0
-132 133 134 0
132 -133 0
132 -134 0
133 -19 -20 0
-133 19 0
-133 20 0
134 -17 -18 0
-134 17 0
-134 18 0
135 136 -137 0
135 -136 137 0
-135 -136 -137 0
-135 136 137 0
136 -333 -339 0
-136 333 0
-136 339 0
137 138 -139 0
137 -138 139 0
-137 -138 -139 0
-137 138 139 0
138 -327 -335 0
-138 327 0
-138 335 0
139 -331 -334 0
-139 331 0
-139 334 0
-140 141 154 0
-140 -141 -154 0
140 -141 154 0
140 141 -154 0
141 -142 145 0
141 142 -145 0
-141 142 145 0
-141 -142 -145 0
-142 143 144 0
142 -143 0
142 -144 0
143 -41 -42 0
-143 41 0
-143 42 0
144 -39 -40 0
-144 39 0
-144 40 0
-145 146 151 0
-145 -146 -151 0
145 -146 151 0
145 146 -151 0
146 147 -148 0
146 -147 148 0
-146 -147 -148 0
-146 147 148 0
147 -332 -357 0
-147 332 0
-147 357 0
148 149 -150 0
148 -149 150 0
-148 -149 -150 0
-148 149 150 0
149 -337 -343 0
-149 337 0
-149 343 0
150 -336 -340 0
-150 336 0
-150 340 0
-151 152 153 0
151 -152 0
151 -153 0
152 -36 -37 0
-152 36 0
-152 37 0
153 -34 -35 0
-153 34 0
-153 35 0
-154 155 160 0
-154 -155 -160 0
154 -155 160 0
154 155 -160 0
155 156 -157 0
155 -156 157 0
-155 -156 -157 0
-155 156 157 0
156 -347 -360 0
-156 347 0
-156 360 0
157 158 -159 0
157 -158 159 0
-157 -158 -159 0
-157 158 159 0
158 -326 -352 0
-158 326 0
-158 352 0
159 -348 -353 0
-159 348 0
-159 353 0
-160 -161 -164 0
-160 161 164 0
160 161 -164 0
160 -161 164 0
-161 162 163 0
161 -162 0
161 -163 0
162 -30 -31 0
-162 30 0
-162 31 0
163 -28 -29 0
-163 28 0
-163 29 0
164 165 -166 0
164 -165 166 0
-164 -165 -166 0
-164 165 166 0
165 -351 -359 0
-165 351 0
-165 359 0
166 167 -168 0
166 -167 168 0
-166 -167 -168 0
-166 167 168 0
167 -342 -355 0
-167 342 0
-167 355 0
168 -349 -354 0
-168 349 0
-168 354 0
-169 170 171 0
169 -170 0
169 -171 0
170 -97 -99 0
-170 97 0
-170 99 0
171 -83 -96 0
-171 83 0
-171 96 0
-172 173 189 0
-172 189 191 0
-172 173 191 0
172 -189 -191 0
172 -173 -189 0
172 -173 -191 0
173 -174 -188 0
-173 174 0
-173 188 0
-174 175 180 0
-174 175 187 0
174 -175 0
174 -180 -187 0
175 -176 -178 0
-175 176 0
-175 178 0
176 177 -55 0
176 -177 55 0
-176 -177 -55 0
-176 177 55 0
177 -339 -344 0
-177 339 0
-177 344 0
178 179 -73 0
178 -179 73 0
-178 -179 -73 0
-178 179 73 0
179 -351 -357 0
-179 351 0
-179 357 0
-180 181 184 0
180 -181 0
180 -184 0
181 -182 -183 0
-181 182 0
-181 183 0
182 -335 -341 0
-182 335 0
-182 341 0
183 -331 -344 0
-183 331 0
-183 344 0
184 -185 -186 0
-184 185 0
-184 186 0
185 -343 -354 0
-185 343 0
-185 354 0
186 182 -183 0
186 -182 183 0
-186 -182 -183 0
-186 182 183 0
187 176 -178 0
187 -176 178 0
-187 -176 -178 0
-187 176 178 0
-188 -63 -81 0
-188 63 81 0
188 63 -81 0
188 -63 81 0
-189 82 190 0
-189 -82 -190 0
189 -82 190 0
189 82 -190 0
-190 6 43 0
-190 -6 -43 0
190 -6 43 0
190 6 -43 0
-191 205 206 0
-191 192 205 0
-191 192 206 0
191 -192 -205 0
191 -205 -206 0
191 -192 -206 0
-192 195 202 0
-192 193 202 0
192 -202 0
192 -193 -195 0
193 194 -48 0
193 -194 48 0
-193 -194 -48 0
-193 194 48 0
194 -350 -360 0
-194 350 0
-194 360 0
-195 196 199 0
195 -196 0
195 -199 0
196 -197 -198 0
-196 197 0
-196 198 0
197 -340 -351 0
-197 340 0
-197 351 0
198 -352 -356 0
-198 352 0
-198 356 0
199 -200 -201 0
-199 200 0
-199 201 0
200 -348 -350 0
-200 348 0
-200 350 0
201 197 -198 0
201 -197 198 0
-201 -197 -198 0
-201 197 198 0
202 -203 -204 0
-202 203 0
-202 204 0
-203 193 195 0
-203 -193 -195 0
203 -193 195 0
203 193 -195 0
-204 -180 -187 0
-204 180 187 0
204 180 -187 0
204 -180 187 0
205 -174 188 0
205 174 -188 0
-205 174 188 0
-205 -174 -188 0
206 -207 -208 -213 0
206 -207 -209 -213 0
206 -208 -209 -213 0
-206 208 209 0
-206 207 208 0
-206 213 0
-206 207 209 0
207 185 -186 0
207 -185 186 0
-207 -185 -186 0
-207 185 186 0
208 200 -201 0
208 -200 201 0
-208 -200 -201 0
-208 200 201 0
-209 210 211 0
-209 335 210 0
-209 344 210 0
209 -210 0
209 -335 -344 -211 0
210 -343 -350 -351 -352 0
-210 352 0
-210 343 0
-210 351 0
-210 350 0
-211 350 212 0
-211 352 212 0
211 -212 0
211 -350 -352 0
212 -343 -351 0
-212 343 0
-212 351 0
213 -203 204 0
213 203 -204 0
-213 203 204 0
-213 -203 -204 0
-214 215 304 0
-214 -215 -304 0
214 -215 304 0
214 215 -304 0
-215 -216 -271 0
-215 216 271 0
215 216 -271 0
215 -216 271 0
-216 -217 -245 0
-216 217 245 0
216 217 -245 0
216 -217 245 0
-217 218 236 0
-217 218 244 0
217 -218 0
217 -236 -244 0
218 -219 -228 0
-218 219 0
-218 228 0
-219 220 227 0
-219 225 227 0
219 -227 0
219 -220 -225 0
-220 221 223 0
220 -221 0
220 -223 0
221 -77 222 0
221 77 -222 0
-221 77 222 0
-221 -77 -222 0
-222 -79 -80 0
-222 79 80 0
222 79 -80 0
222 -79 80 0
223 -71 -224 0
223 -351 -357 -224 0
-223 224 0
-223 351 71 0
-223 357 71 0
-224 340 74 0
-224 354 74 0
224 -74 0
224 -340 -354 0
225 -65 226 0
225 65 -226 0
-225 65 226 0
-225 -65 -226 0
-226 -67 -68 0
-226 67 68 0
226 67 -68 0
226 -67 68 0
227 -221 -223 0
-227 221 0
-227 223 0
228 -229 -232 0
228 -232 -234 0
228 -229 -234 0
-228 232 234 0
-228 229 232 0
-228 229 234 0
-229 -23 -230 0
-229 23 230 0
229 23 -230 0
229 -23 230 0
230 -24 231 0
-230 24 0
-230 -231 0
231 -335 -338 -20 0
-231 335 0
-231 338 0
-231 20 0
232 -13 233 0
232 13 -233 0
-232 13 233 0
-232 -13 -233 0
-233 -10 -11 0
-233 10 11 0
233 10 -11 0
233 -10 11 0
234 -53 -235 0
234 -339 -344 -235 0
-234 235 0
-234 339 53 0
-234 344 53 0
-235 331 56 0
-235 341 56 0
235 -56 0
235 -331 -341 0
-236 -237 -240 0
-236 237 240 0
236 237 -240 0
236 -237 240 0
-237 -238 -239 0
-237 238 239 0
237 238 -239 0
237 -238 239 0
238 -77 -79 0
238 -79 -80 0
238 -77 -80 0
-238 77 80 0
-238 79 80 0
-238 77 79 0
239 -65 -67 0
239 -67 -68 0
239 -65 -68 0
-239 65 68 0
-239 67 68 0
-239 65 67 0
240 85 -241 0
240 -85 241 0
-240 -85 -241 0
-240 85 241 0
241 -242 243 0
-241 242 0
-241 -243 0
-242 358 88 0
-242 360 88 0
242 -88 0
242 -358 -360 0
243 -358 -361 -68 0
-243 358 0
-243 361 0
-243 68 0
244 219 -228 0
244 -219 228 0
-244 -219 -228 0
-244 219 228 0
245 246 -253 260 0
245 246 253 -260 0
245 -246 253 260 0
245 -246 -253 -260 0
-245 246 -253 -260 0
-245 246 253 260 0
-245 -246 253 -260 0
-245 -246 -253 260 0
-246 -247 -248 0
-246 247 248 0
246 247 -248 0
246 -247 248 0
247 -39 -41 0
247 -41 -42 0
247 -39 -42 0
-247 39 42 0
-247 41 42 0
-247 39 41 0
248 249 -252 0
248 -249 252 0
-248 -249 -252 0
-248 249 252 0
-249 -147 -250 0
-249 147 250 0
249 147 -250 0
249 -147 250 0
250 340 -251 0
250 34 -251 0
250 337 -251 0
-250 251 0
-250 -337 -340 -34 0
-251 336 149 0
-251 340 149 0
251 -149 0
251 -336 -340 0
252 -34 -36 0
252 -36 -37 0
252 -34 -37 0
-252 34 37 0
-252 36 37 0
-252 34 36 0
-253 254 256 0
-253 -254 -256 0
253 -254 256 0
253 254 -256 0
254 -156 255 0
254 156 -255 0
-254 156 255 0
-254 -156 -255 0
-255 -158 -159 0
-255 158 159 0
255 158 -159 0
255 -158 159 0
-256 -257 -258 0
-256 257 258 0
256 257 -258 0
256 -257 258 0
257 -28 -30 0
257 -30 -31 0
257 -28 -31 0
-257 28 31 0
-257 30 31 0
-257 28 30 0
258 -165 259 0
258 165 -259 0
-258 165 259 0
-258 -165 -259 0
-259 -167 -168 0
-259 167 168 0
259 167 -168 0
259 -167 168 0
260 261 -267 0
260 -261 267 0
-260 -261 -267 0
-260 261 267 0
-261 -262 -264 0
-261 262 264 0
261 262 -264 0
261 -262 264 0
262 -127 263 0
262 127 -263 0
-262 127 263 0
-262 -127 -263 0
-263 -129 -130 0
-263 129 130 0
263 129 -130 0
263 -129 130 0
264 121 -265 0
264 -121 265 0
-264 -121 -265 0
-264 121 265 0
265 358 -266 0
265 88 -266 0
265 330 -266 0
-265 266 0
-265 -330 -358 -88 0
-266 330 123 0
-266 356 123 0
266 -123 0
266 -330 -356 0
267 268 -270 0
267 -268 270 0
-267 -268 -270 0
-267 268 270 0
268 -136 269 0
268 136 -269 0
-268 136 269 0
-268 -136 -269 0
-269 -138 -139 0
-269 138 139 0
269 138 -139 0
269 -138 139 0
270 -17 -19 0
270 -19 -20 0
270 -17 -20 0
-270 17 20 0
-270 19 20 0
-270 17 19 0
271 272 -295 0
271 -272 295 0
-271 -272 -295 0
-271 272 295 0
-272 273 288 0
-272 -273 -288 0
272 -273 288 0
272 273 -288 0
-273 274 279 0
-273 -274 -279 0
273 -274 279 0
273 274 -279 0
-274 275 278 0
-274 277 278 0
-274 275 277 0
274 -275 -277 0
274 -277 -278 0
274 -275 -278 0
275 -17 276 0
275 17 -276 0
-275 17 276 0
-275 -17 -276 0
-276 -19 -20 0
-276 19 20 0
276 19 -20 0
276 -19 20 0
277 -23 -24 0
277 -24 -231 0
-277 24 0
-277 23 231 0
278 -10 -11 0
278 -11 -13 0
278 -10 -13 0
-278 10 13 0
-278 11 13 0
-278 10 11 0
-279 280 287 0
-279 -280 -287 0
279 -280 287 0
279 280 -287 0
280 -281 -283 0
280 -283 -285 0
280 -281 -285 0
-280 281 285 0
-280 283 285 0
-280 281 283 0
281 -39 282 0
281 39 -282 0
-281 39 282 0
-281 -39 -282 0
-282 -41 -42 0
-282 41 42 0
282 41 -42 0
282 -41 42 0
283 -34 284 0
283 34 -284 0
-283 34 284 0
-283 -34 -284 0
-284 -36 -37 0
-284 36 37 0
284 36 -37 0
284 -36 37 0
285 -28 286 0
285 28 -286 0
-285 28 286 0
-285 -28 -286 0
-286 -30 -31 0
-286 30 31 0
286 30 -31 0
286 -30 31 0
-287 242 243 0
-287 85 243 0
287 -243 0
287 -85 -242 0
-288 289 294 0
-288 -289 -294 0
288 -289 294 0
288 289 -294 0
289 -290 -292 0
-289 290 0
-289 292 0
-290 -291 -278 0
-290 291 278 0
290 291 -278 0
290 -291 278 0
-291 -275 -277 0
-291 275 277 0
291 275 -277 0
291 -275 277 0
-292 285 293 0
-292 -285 -293 0
292 -285 293 0
292 285 -293 0
-293 -281 -283 0
-293 281 283 0
293 281 -283 0
293 -281 283 0
-294 238 240 0
-294 239 240 0
-294 238 239 0
294 -238 -239 0
294 -239 -240 0
294 -238 -240 0
295 -296 -303 0
295 -302 -303 0
295 -296 -302 0
-295 296 302 0
-295 302 303 0
-295 296 303 0
-296 298 300 0
-296 234 297 300 0
-296 234 297 298 0
-296 -234 -297 298 0
-296 -234 -297 300 0
296 -298 -300 0
296 234 -297 -300 0
296 -234 297 -300 0
296 -234 297 -298 0
296 234 -297 -298 0
-297 -229 -232 0
-297 229 232 0
297 229 -232 0
297 -229 232 0
298 -46 -299 0
298 -350 -360 -299 0
-298 299 0
-298 350 46 0
-298 360 46 0
-299 352 50 0
-299 358 50 0
299 -50 0
299 -352 -358 0
-300 -225 -301 0
-300 225 301 0
300 225 -301 0
300 -225 301 0
301 221 -223 0
301 -221 223 0
-301 -221 -223 0
-301 221 223 0
-302 290 292 0
-302 -290 -292 0
302 -290 292 0
302 290 -292 0
-303 -236 -244 0
-303 236 244 0
303 236 -244 0
303 -236 244 0
-304 306 313 0
-304 -303 -305 313 0
-304 303 305 313 0
-304 303 305 306 0
-304 -303 -305 306 0
304 -306 -313 0
304 -303 305 -306 0
304 -303 305 -313 0
304 303 -305 -306 0
304 303 -305 -313 0
-305 296 302 0
-305 -296 -302 0
305 -296 302 0
305 296 -302 0
306 -307 -310 0
-306 307 0
-306 310 0
307 -300 308 0
307 300 -308 0
-307 300 308 0
-307 -300 -308 0
-308 297 309 0
-308 -297 -309 0
308 -297 309 0
308 297 -309 0
-309 -234 -298 0
-309 234 298 0
309 234 -298 0
309 -234 298 0
-310 175 311 0
-310 175 312 0
310 -175 0
310 -311 -312 0
-311 -176 -178 0
-311 176 178 0
311 176 -178 0
311 -176 178 0
312 -182 -183 0
312 -183 -185 0
312 -182 -185 0
-312 182 185 0
-312 183 185 0
-312 182 183 0
313 -315 -318 0
313 -314 -315 0
313 -314 -318 0
-313 314 315 0
-313 315 318 0
-313 314 318 0
-314 307 310 0
-314 -307 -310 0
314 -307 310 0
314 307 -310 0
-315 316 317 0
-315 193 316 0
-315 193 317 0
315 -193 -316 0
315 -316 -317 0
315 -193 -317 0
316 -197 -198 0
316 -198 -200 0
316 -197 -200 0
-316 197 200 0
-316 198 200 0
-316 197 198 0
-317 -311 -312 0
-317 311 312 0
317 311 -312 0
317 -311 312 0
318 317 -319 -320 0
318 -317 319 -320 0
-318 320 0
-318 317 319 0
-318 -317 -319 0
319 193 -316 0
319 -193 316 0
-319 -193 -316 0
-319 193 316 0
-320 323 325 0
-320 321 323 0
-320 321 325 0
320 -321 -323 0
320 -323 -325 0
320 -321 -325 0
321 -185 322 0
321 185 -322 0
-321 185 322 0
-321 -185 -322 0
-322 -182 -183 0
-322 182 183 0
322 182 -183 0
322 -182 183 0
323 -200 324 0
323 200 -324 0
-323 200 324 0
-323 -200 -324 0
-324 -197 -198 0
-324 197 198 0
324 197 -198 0
324 -197 198 0
-325 210 211 0
-325 335 210 0
-325 344 210 0
325 -210 0
325 -335 -344 -211 0
-362 0
2 0

